55849
48, 19, 44, 38, 8, 32, 41, 13, 51, 37, 20, 50, 24, 35, 5, 7, 40, 43, 3, 28, 6, 55, 49, 26, 54, 34, 12, 18, 4, 30, 47, 9, 14, 2, 11, 45, 42, 33, 27, 1, 31, 25, 52, 15, 36, 46, 39, 16, 10, 22, 29, 21, 23, 53, 17
